# 1.3.99.2_group0_PF00441_30-85~1.3.99.7_group0_PF00441_30-85.sdpA
# All alignment positions within 5\AA of a ligand/cat site passing the sdpA filter.  Column indices start with 0.
11
108
115
133
139
144
